
Gurobi 7.0.2 (mac64, Python) logging started Sun Mar 12 19:51:49 2017

Parameter UpdateMode unchanged
   Value: 1  Min: 0  Max: 1  Default: 1
Optimize a model with 84 rows, 156 columns and 348 nonzeros
Variable types: 126 continuous, 30 integer (0 binary)
Coefficient statistics:
  Matrix range     [1e-02, 4e+02]
  Objective range  [5e-01, 1e+01]
  Bounds range     [6e+01, 1e+03]
  RHS range        [1e+00, 2e+03]
Found heuristic solution: objective -175
Presolve removed 22 rows and 27 columns
Presolve time: 0.01s
Presolved: 62 rows, 129 columns, 278 nonzeros
Variable types: 105 continuous, 24 integer (12 binary)

Root relaxation: objective 1.164550e+05, 15 iterations, 0.00 seconds

    Nodes    |    Current Node    |     Objective Bounds      |     Work
 Expl Unexpl |  Obj  Depth IntInf | Incumbent    BestBd   Gap | It/Node Time

     0     0 116455.000    0   13 -175.00000 116455.000      -     -    0s
H    0     0                    92755.000000 116455.000  25.6%     -    0s
H    0     0                    95895.000000 116455.000  21.4%     -    0s
H    0     0                    101825.00000 116455.000  14.4%     -    0s
H    0     0                    105505.00000 114655.000  8.67%     -    0s
H    0     0                    108855.00000 113822.761  4.56%     -    0s
     0     0 112464.892    0    7 108855.000 112464.892  3.32%     -    0s
     0     0 109908.977    0    6 108855.000 109908.977  0.97%     -    0s
     0     0     cutoff    0      108855.000 108855.000  0.00%     -    0s

Cutting planes:
  Gomory: 2
  Implied bound: 15
  MIR: 1

Explored 0 nodes (88 simplex iterations) in 0.04 seconds
Thread count was 8 (of 8 available processors)

Solution count 6: 108855 105505 101825 ... -175
Pool objective bound 108855

Optimal solution found (tolerance 1.00e-04)
Best objective 1.088550000000e+05, best bound 1.088550000000e+05, gap 0.0000%
Parameter UpdateMode unchanged
   Value: 1  Min: 0  Max: 1  Default: 1
Optimize a model with 84 rows, 156 columns and 348 nonzeros
Variable types: 126 continuous, 30 integer (0 binary)
Coefficient statistics:
  Matrix range     [1e-02, 4e+02]
  Objective range  [5e-01, 1e+01]
  Bounds range     [6e+01, 1e+03]
  RHS range        [1e+00, 2e+03]
Found heuristic solution: objective -175
Presolve removed 22 rows and 27 columns
Presolve time: 0.00s
Presolved: 62 rows, 129 columns, 278 nonzeros
Variable types: 105 continuous, 24 integer (12 binary)

Root relaxation: objective 1.164550e+05, 15 iterations, 0.00 seconds

    Nodes    |    Current Node    |     Objective Bounds      |     Work
 Expl Unexpl |  Obj  Depth IntInf | Incumbent    BestBd   Gap | It/Node Time

     0     0 116455.000    0   13 -175.00000 116455.000      -     -    0s
H    0     0                    92755.000000 116455.000  25.6%     -    0s
H    0     0                    95895.000000 116455.000  21.4%     -    0s
H    0     0                    101825.00000 116455.000  14.4%     -    0s
H    0     0                    105505.00000 114655.000  8.67%     -    0s
H    0     0                    108855.00000 113822.761  4.56%     -    0s
     0     0 112464.892    0    7 108855.000 112464.892  3.32%     -    0s
     0     0 109908.977    0    6 108855.000 109908.977  0.97%     -    0s
     0     0     cutoff    0      108855.000 108855.000  0.00%     -    0s

Cutting planes:
  Gomory: 2
  Implied bound: 15
  MIR: 1

Explored 0 nodes (88 simplex iterations) in 0.03 seconds
Thread count was 8 (of 8 available processors)

Solution count 6: 108855 105505 101825 ... -175
Pool objective bound 108855

Optimal solution found (tolerance 1.00e-04)
Best objective 1.088550000000e+05, best bound 1.088550000000e+05, gap 0.0000%
